benchmarks_vrp/CMT5/min_c/CMT5_12.vrp
NAME: CMT5_12
TYPE: CVRP
COMMENT: 1291.29 - Cluster Nr.12
DIMENSION: 14
CAPACITY: 200
EDGE_WEIGHT_TYPE: EUC_2D
NODE_COORD_TYPE: TWOD_COORDS
NODE_COORD_SECTION: 
9 50 40
13 55 45
3 47 47
7 53 43
8 55 45
10 42 41
1 50 35
11 52 41
12 49 49
14 45 35
2 35 35
6 51 42
5 45 35
4 49 42
DEPOT_SECTION: 
2
-1
DEMAND_SECTION: 
1 19
4 13
11 15
5 30
2 0
12 30
7 14
13 16
10 19
8 13
6 27
14 15
3 13
9 19
EOF
