benchmarks_vrp/CMT5/min_c/CMT5_12.tour
NAME: CMT5_12 solution
TYPE: TOUR
TOUR_SECTION:
2 1 9 4 6 11 7 8 13 12 3 10 -1
2 5 14 -1
-1
EOF